c A SAT instance generated from a 4-CNF formula that had 27 clauses and 21 variables
p cnf 21 27
3 13 7 -12 0
-2 -3 17 6 0
-8 -6 -14 4 0
-11 -12 -16 -8 0
-14 17 -12 -5 0
4 -18 -19 14 0
-13 -15 -2 8 0
21 11 12 -15 0
20 -6 -12 10 0
-10 16 21 -15 0
-3 21 6 9 0
10 13 17 -1 0
-12 20 -18 -3 0
9 16 8 4 0
-21 -19 4 -20 0
-8 -6 3 17 0
2 12 -21 -8 0
16 10 -18 3 0
-21 -18 -19 14 0
-18 -8 19 -15 0
-5 20 13 21 0
8 -6 12 -18 0
-16 -5 15 -11 0
16 -6 -5 -3 0
15 -11 -12 19 0
-16 18 6 -1 0
-20 -4 7 -17 0
